(set-logic ALL)
(set-option :produce-models true)
(declare-sort BoundSet 0)
(declare-sort UnboundSet 0)
(declare-fun IsLargeNumber (BoundSet) Bool)
(declare-fun IsWatching (BoundSet BoundSet) Bool)
(declare-fun IsDressedIn (BoundSet BoundSet) Bool)
(assert (not (=> (exists ((b BoundSet)) (exists ((a BoundSet)) (exists ((c BoundSet)) (and (IsLargeNumber a) (and (IsWatching a b) (IsDressedIn b c)))))) (exists ((b BoundSet)) (exists ((a BoundSet)) (exists ((c BoundSet)) (and (IsLargeNumber a) (and (IsWatching a b) (IsDressedIn b c)))))))))
(check-sat)
(get-model)